p cnf 555 1115
-1 0
-166 0
-331 0
-2 0
-167 0
-332 0
-3 0
168 0
-333 0
-4 0
-169 0
-334 0
-5 0
-170 0
-335 0
-6 0
-171 0
-336 0
7 0
-172 0
-337 0
-8 0
-173 0
-338 0
-9 0
-174 0
-339 0
-10 0
-175 0
340 0
-11 0
-176 0
-341 0
331 0
506 0
-496 -1 -332 0
-498 -1 332 -333 0
-496 -2 -333 0
-498 -2 333 -334 0
-497 -3 -167 0
-496 -3 -334 0
-498 -3 334 -335 0
-497 -4 -168 0
-499 -4 168 -167 0
-496 -4 -335 0
-498 -4 335 -336 0
-497 -5 -169 0
-499 -5 169 -168 0
-496 -5 -336 0
-498 -5 336 -337 0
-497 -6 -170 0
-499 -6 170 -169 0
-496 -6 -337 0
-498 -6 337 -338 0
-497 -7 -171 0
-499 -7 171 -170 0
-496 -7 -338 0
-498 -7 338 -339 0
-497 -8 -172 0
-499 -8 172 -171 0
-496 -8 -339 0
-498 -8 339 -340 0
-497 -9 -173 0
-499 -9 173 -172 0
-496 -9 -340 0
-498 -9 340 -341 0
-497 -10 -174 0
-499 -10 174 -173 0
-496 -10 -341 0
-497 -11 -175 0
-499 -11 175 -174 0
-500 -12 -343 0
-502 -12 343 -344 0
-500 -13 -344 0
-502 -13 344 -345 0
-501 -14 -178 0
-500 -14 -345 0
-502 -14 345 -346 0
-501 -15 -179 0
-503 -15 179 -178 0
-500 -15 -346 0
-502 -15 346 -347 0
-501 -16 -180 0
-503 -16 180 -179 0
-500 -16 -347 0
-502 -16 347 -348 0
-501 -17 -181 0
-503 -17 181 -180 0
-500 -17 -348 0
-502 -17 348 -349 0
-501 -18 -182 0
-503 -18 182 -181 0
-500 -18 -349 0
-502 -18 349 -350 0
-501 -19 -183 0
-503 -19 183 -182 0
-500 -19 -350 0
-502 -19 350 -351 0
-501 -20 -184 0
-503 -20 184 -183 0
-500 -20 -351 0
-502 -20 351 -352 0
-501 -21 -185 0
-503 -21 185 -184 0
-500 -21 -352 0
-501 -22 -186 0
-503 -22 186 -185 0
-504 -23 -354 0
-506 -23 354 -355 0
-504 -24 -355 0
-506 -24 355 -356 0
-505 -25 -189 0
-504 -25 -356 0
-506 -25 356 -357 0
-505 -26 -190 0
-507 -26 190 -189 0
-504 -26 -357 0
-506 -26 357 -358 0
-505 -27 -191 0
-507 -27 191 -190 0
-504 -27 -358 0
-506 -27 358 -359 0
-505 -28 -192 0
-507 -28 192 -191 0
-504 -28 -359 0
-506 -28 359 -360 0
-505 -29 -193 0
-507 -29 193 -192 0
-504 -29 -360 0
-506 -29 360 -361 0
-505 -30 -194 0
-507 -30 194 -193 0
-504 -30 -361 0
-506 -30 361 -362 0
-505 -31 -195 0
-507 -31 195 -194 0
-504 -31 -362 0
-506 -31 362 -363 0
-505 -32 -196 0
-507 -32 196 -195 0
-504 -32 -363 0
-505 -33 -197 0
-507 -33 197 -196 0
-508 -34 -365 0
-510 -34 365 -366 0
-508 -35 -366 0
-510 -35 366 -367 0
-509 -36 -200 0
-508 -36 -367 0
-510 -36 367 -368 0
-509 -37 -201 0
-511 -37 201 -200 0
-508 -37 -368 0
-510 -37 368 -369 0
-509 -38 -202 0
-511 -38 202 -201 0
-508 -38 -369 0
-510 -38 369 -370 0
-509 -39 -203 0
-511 -39 203 -202 0
-508 -39 -370 0
-510 -39 370 -371 0
-509 -40 -204 0
-511 -40 204 -203 0
-508 -40 -371 0
-510 -40 371 -372 0
-509 -41 -205 0
-511 -41 205 -204 0
-508 -41 -372 0
-510 -41 372 -373 0
-509 -42 -206 0
-511 -42 206 -205 0
-508 -42 -373 0
-510 -42 373 -374 0
-509 -43 -207 0
-511 -43 207 -206 0
-508 -43 -374 0
-509 -44 -208 0
-511 -44 208 -207 0
-512 -45 -376 0
-514 -45 376 -377 0
-512 -46 -377 0
-514 -46 377 -378 0
-513 -47 -211 0
-512 -47 -378 0
-514 -47 378 -379 0
-513 -48 -212 0
-515 -48 212 -211 0
-512 -48 -379 0
-514 -48 379 -380 0
-513 -49 -213 0
-515 -49 213 -212 0
-512 -49 -380 0
-514 -49 380 -381 0
-513 -50 -214 0
-515 -50 214 -213 0
-512 -50 -381 0
-514 -50 381 -382 0
-513 -51 -215 0
-515 -51 215 -214 0
-512 -51 -382 0
-514 -51 382 -383 0
-513 -52 -216 0
-515 -52 216 -215 0
-512 -52 -383 0
-514 -52 383 -384 0
-513 -53 -217 0
-515 -53 217 -216 0
-512 -53 -384 0
-514 -53 384 -385 0
-513 -54 -218 0
-515 -54 218 -217 0
-512 -54 -385 0
-513 -55 -219 0
-515 -55 219 -218 0
-516 -56 -387 0
-518 -56 387 -388 0
-516 -57 -388 0
-518 -57 388 -389 0
-517 -58 -222 0
-516 -58 -389 0
-518 -58 389 -390 0
-517 -59 -223 0
-519 -59 223 -222 0
-516 -59 -390 0
-518 -59 390 -391 0
-517 -60 -224 0
-519 -60 224 -223 0
-516 -60 -391 0
-518 -60 391 -392 0
-517 -61 -225 0
-519 -61 225 -224 0
-516 -61 -392 0
-518 -61 392 -393 0
-517 -62 -226 0
-519 -62 226 -225 0
-516 -62 -393 0
-518 -62 393 -394 0
-517 -63 -227 0
-519 -63 227 -226 0
-516 -63 -394 0
-518 -63 394 -395 0
-517 -64 -228 0
-519 -64 228 -227 0
-516 -64 -395 0
-518 -64 395 -396 0
-517 -65 -229 0
-519 -65 229 -228 0
-516 -65 -396 0
-517 -66 -230 0
-519 -66 230 -229 0
-520 -67 -398 0
-522 -67 398 -399 0
-520 -68 -399 0
-522 -68 399 -400 0
-521 -69 -233 0
-520 -69 -400 0
-522 -69 400 -401 0
-521 -70 -234 0
-523 -70 234 -233 0
-520 -70 -401 0
-522 -70 401 -402 0
-521 -71 -235 0
-523 -71 235 -234 0
-520 -71 -402 0
-522 -71 402 -403 0
-521 -72 -236 0
-523 -72 236 -235 0
-520 -72 -403 0
-522 -72 403 -404 0
-521 -73 -237 0
-523 -73 237 -236 0
-520 -73 -404 0
-522 -73 404 -405 0
-521 -74 -238 0
-523 -74 238 -237 0
-520 -74 -405 0
-522 -74 405 -406 0
-521 -75 -239 0
-523 -75 239 -238 0
-520 -75 -406 0
-522 -75 406 -407 0
-521 -76 -240 0
-523 -76 240 -239 0
-520 -76 -407 0
-521 -77 -241 0
-523 -77 241 -240 0
-524 -78 -409 0
-526 -78 409 -410 0
-524 -79 -410 0
-526 -79 410 -411 0
-525 -80 -244 0
-524 -80 -411 0
-526 -80 411 -412 0
-525 -81 -245 0
-527 -81 245 -244 0
-524 -81 -412 0
-526 -81 412 -413 0
-525 -82 -246 0
-527 -82 246 -245 0
-524 -82 -413 0
-526 -82 413 -414 0
-525 -83 -247 0
-527 -83 247 -246 0
-524 -83 -414 0
-526 -83 414 -415 0
-525 -84 -248 0
-527 -84 248 -247 0
-524 -84 -415 0
-526 -84 415 -416 0
-525 -85 -249 0
-527 -85 249 -248 0
-524 -85 -416 0
-526 -85 416 -417 0
-525 -86 -250 0
-527 -86 250 -249 0
-524 -86 -417 0
-526 -86 417 -418 0
-525 -87 -251 0
-527 -87 251 -250 0
-524 -87 -418 0
-525 -88 -252 0
-527 -88 252 -251 0
-528 -89 -420 0
-530 -89 420 -421 0
-528 -90 -421 0
-530 -90 421 -422 0
-529 -91 -255 0
-528 -91 -422 0
-530 -91 422 -423 0
-529 -92 -256 0
-531 -92 256 -255 0
-528 -92 -423 0
-530 -92 423 -424 0
-529 -93 -257 0
-531 -93 257 -256 0
-528 -93 -424 0
-530 -93 424 -425 0
-529 -94 -258 0
-531 -94 258 -257 0
-528 -94 -425 0
-530 -94 425 -426 0
-529 -95 -259 0
-531 -95 259 -258 0
-528 -95 -426 0
-530 -95 426 -427 0
-529 -96 -260 0
-531 -96 260 -259 0
-528 -96 -427 0
-530 -96 427 -428 0
-529 -97 -261 0
-531 -97 261 -260 0
-528 -97 -428 0
-530 -97 428 -429 0
-529 -98 -262 0
-531 -98 262 -261 0
-528 -98 -429 0
-529 -99 -263 0
-531 -99 263 -262 0
-532 -100 -431 0
-534 -100 431 -432 0
-532 -101 -432 0
-534 -101 432 -433 0
-533 -102 -266 0
-532 -102 -433 0
-534 -102 433 -434 0
-533 -103 -267 0
-535 -103 267 -266 0
-532 -103 -434 0
-534 -103 434 -435 0
-533 -104 -268 0
-535 -104 268 -267 0
-532 -104 -435 0
-534 -104 435 -436 0
-533 -105 -269 0
-535 -105 269 -268 0
-532 -105 -436 0
-534 -105 436 -437 0
-533 -106 -270 0
-535 -106 270 -269 0
-532 -106 -437 0
-534 -106 437 -438 0
-533 -107 -271 0
-535 -107 271 -270 0
-532 -107 -438 0
-534 -107 438 -439 0
-533 -108 -272 0
-535 -108 272 -271 0
-532 -108 -439 0
-534 -108 439 -440 0
-533 -109 -273 0
-535 -109 273 -272 0
-532 -109 -440 0
-533 -110 -274 0
-535 -110 274 -273 0
-536 -111 -442 0
-538 -111 442 -443 0
-536 -112 -443 0
-538 -112 443 -444 0
-537 -113 -277 0
-536 -113 -444 0
-538 -113 444 -445 0
-537 -114 -278 0
-539 -114 278 -277 0
-536 -114 -445 0
-538 -114 445 -446 0
-537 -115 -279 0
-539 -115 279 -278 0
-536 -115 -446 0
-538 -115 446 -447 0
-537 -116 -280 0
-539 -116 280 -279 0
-536 -116 -447 0
-538 -116 447 -448 0
-537 -117 -281 0
-539 -117 281 -280 0
-536 -117 -448 0
-538 -117 448 -449 0
-537 -118 -282 0
-539 -118 282 -281 0
-536 -118 -449 0
-538 -118 449 -450 0
-537 -119 -283 0
-539 -119 283 -282 0
-536 -119 -450 0
-538 -119 450 -451 0
-537 -120 -284 0
-539 -120 284 -283 0
-536 -120 -451 0
-537 -121 -285 0
-539 -121 285 -284 0
-540 -122 -453 0
-542 -122 453 -454 0
-540 -123 -454 0
-542 -123 454 -455 0
-541 -124 -288 0
-540 -124 -455 0
-542 -124 455 -456 0
-541 -125 -289 0
-543 -125 289 -288 0
-540 -125 -456 0
-542 -125 456 -457 0
-541 -126 -290 0
-543 -126 290 -289 0
-540 -126 -457 0
-542 -126 457 -458 0
-541 -127 -291 0
-543 -127 291 -290 0
-540 -127 -458 0
-542 -127 458 -459 0
-541 -128 -292 0
-543 -128 292 -291 0
-540 -128 -459 0
-542 -128 459 -460 0
-541 -129 -293 0
-543 -129 293 -292 0
-540 -129 -460 0
-542 -129 460 -461 0
-541 -130 -294 0
-543 -130 294 -293 0
-540 -130 -461 0
-542 -130 461 -462 0
-541 -131 -295 0
-543 -131 295 -294 0
-540 -131 -462 0
-541 -132 -296 0
-543 -132 296 -295 0
-544 -133 -464 0
-546 -133 464 -465 0
-544 -134 -465 0
-546 -134 465 -466 0
-545 -135 -299 0
-544 -135 -466 0
-546 -135 466 -467 0
-545 -136 -300 0
-547 -136 300 -299 0
-544 -136 -467 0
-546 -136 467 -468 0
-545 -137 -301 0
-547 -137 301 -300 0
-544 -137 -468 0
-546 -137 468 -469 0
-545 -138 -302 0
-547 -138 302 -301 0
-544 -138 -469 0
-546 -138 469 -470 0
-545 -139 -303 0
-547 -139 303 -302 0
-544 -139 -470 0
-546 -139 470 -471 0
-545 -140 -304 0
-547 -140 304 -303 0
-544 -140 -471 0
-546 -140 471 -472 0
-545 -141 -305 0
-547 -141 305 -304 0
-544 -141 -472 0
-546 -141 472 -473 0
-545 -142 -306 0
-547 -142 306 -305 0
-544 -142 -473 0
-545 -143 -307 0
-547 -143 307 -306 0
-548 -144 -475 0
-550 -144 475 -476 0
-548 -145 -476 0
-550 -145 476 -477 0
-549 -146 -310 0
-548 -146 -477 0
-550 -146 477 -478 0
-549 -147 -311 0
-551 -147 311 -310 0
-548 -147 -478 0
-550 -147 478 -479 0
-549 -148 -312 0
-551 -148 312 -311 0
-548 -148 -479 0
-550 -148 479 -480 0
-549 -149 -313 0
-551 -149 313 -312 0
-548 -149 -480 0
-550 -149 480 -481 0
-549 -150 -314 0
-551 -150 314 -313 0
-548 -150 -481 0
-550 -150 481 -482 0
-549 -151 -315 0
-551 -151 315 -314 0
-548 -151 -482 0
-550 -151 482 -483 0
-549 -152 -316 0
-551 -152 316 -315 0
-548 -152 -483 0
-550 -152 483 -484 0
-549 -153 -317 0
-551 -153 317 -316 0
-548 -153 -484 0
-549 -154 -318 0
-551 -154 318 -317 0
-552 -155 -486 0
-554 -155 486 -487 0
-552 -156 -487 0
-554 -156 487 -488 0
-553 -157 -321 0
-552 -157 -488 0
-554 -157 488 -489 0
-553 -158 -322 0
-555 -158 322 -321 0
-552 -158 -489 0
-554 -158 489 -490 0
-553 -159 -323 0
-555 -159 323 -322 0
-552 -159 -490 0
-554 -159 490 -491 0
-553 -160 -324 0
-555 -160 324 -323 0
-552 -160 -491 0
-554 -160 491 -492 0
-553 -161 -325 0
-555 -161 325 -324 0
-552 -161 -492 0
-554 -161 492 -493 0
-553 -162 -326 0
-555 -162 326 -325 0
-552 -162 -493 0
-554 -162 493 -494 0
-553 -163 -327 0
-555 -163 327 -326 0
-552 -163 -494 0
-554 -163 494 -495 0
-553 -164 -328 0
-555 -164 328 -327 0
-552 -164 -495 0
-553 -165 -329 0
-555 -165 329 -328 0
-1 -496 13 0
-1 -498 -343 0
-2 -496 14 0
-2 -498 -344 0
-3 -497 13 0
-3 -496 15 0
-3 -498 -345 0
-4 -497 14 0
-4 -499 -179 0
-4 -496 16 0
-4 -498 -346 0
-5 -497 15 0
-5 -499 -180 0
-5 -496 17 0
-5 -498 -347 0
-6 -497 16 0
-6 -499 -181 0
-6 -496 18 0
-6 -498 -348 0
-7 -497 17 0
-7 -499 -182 0
-7 -496 19 0
-7 -498 -349 0
-8 -497 18 0
-8 -499 -183 0
-8 -496 20 0
-8 -498 -350 0
-9 -497 19 0
-9 -499 -184 0
-9 -496 21 0
-9 -498 -351 0
-10 -497 20 0
-10 -499 -185 0
-10 -496 22 0
-11 -497 21 0
-11 -499 -186 0
-12 -500 24 0
-12 -502 -354 0
-13 -500 25 0
-13 -502 -355 0
-14 -501 24 0
-14 -500 26 0
-14 -502 -356 0
-15 -501 25 0
-15 -503 -190 0
-15 -500 27 0
-15 -502 -357 0
-16 -501 26 0
-16 -503 -191 0
-16 -500 28 0
-16 -502 -358 0
-17 -501 27 0
-17 -503 -192 0
-17 -500 29 0
-17 -502 -359 0
-18 -501 28 0
-18 -503 -193 0
-18 -500 30 0
-18 -502 -360 0
-19 -501 29 0
-19 -503 -194 0
-19 -500 31 0
-19 -502 -361 0
-20 -501 30 0
-20 -503 -195 0
-20 -500 32 0
-20 -502 -362 0
-21 -501 31 0
-21 -503 -196 0
-21 -500 33 0
-22 -501 32 0
-22 -503 -197 0
-23 -504 35 0
-23 -506 -365 0
-24 -504 36 0
-24 -506 -366 0
-25 -505 35 0
-25 -504 37 0
-25 -506 -367 0
-26 -505 36 0
-26 -507 -201 0
-26 -504 38 0
-26 -506 -368 0
-27 -505 37 0
-27 -507 -202 0
-27 -504 39 0
-27 -506 -369 0
-28 -505 38 0
-28 -507 -203 0
-28 -504 40 0
-28 -506 -370 0
-29 -505 39 0
-29 -507 -204 0
-29 -504 41 0
-29 -506 -371 0
-30 -505 40 0
-30 -507 -205 0
-30 -504 42 0
-30 -506 -372 0
-31 -505 41 0
-31 -507 -206 0
-31 -504 43 0
-31 -506 -373 0
-32 -505 42 0
-32 -507 -207 0
-32 -504 44 0
-33 -505 43 0
-33 -507 -208 0
-34 -508 46 0
-34 -510 -376 0
-35 -508 47 0
-35 -510 -377 0
-36 -509 46 0
-36 -508 48 0
-36 -510 -378 0
-37 -509 47 0
-37 -511 -212 0
-37 -508 49 0
-37 -510 -379 0
-38 -509 48 0
-38 -511 -213 0
-38 -508 50 0
-38 -510 -380 0
-39 -509 49 0
-39 -511 -214 0
-39 -508 51 0
-39 -510 -381 0
-40 -509 50 0
-40 -511 -215 0
-40 -508 52 0
-40 -510 -382 0
-41 -509 51 0
-41 -511 -216 0
-41 -508 53 0
-41 -510 -383 0
-42 -509 52 0
-42 -511 -217 0
-42 -508 54 0
-42 -510 -384 0
-43 -509 53 0
-43 -511 -218 0
-43 -508 55 0
-44 -509 54 0
-44 -511 -219 0
-45 -512 57 0
-45 -514 -387 0
-46 -512 58 0
-46 -514 -388 0
-47 -513 57 0
-47 -512 59 0
-47 -514 -389 0
-48 -513 58 0
-48 -515 -223 0
-48 -512 60 0
-48 -514 -390 0
-49 -513 59 0
-49 -515 -224 0
-49 -512 61 0
-49 -514 -391 0
-50 -513 60 0
-50 -515 -225 0
-50 -512 62 0
-50 -514 -392 0
-51 -513 61 0
-51 -515 -226 0
-51 -512 63 0
-51 -514 -393 0
-52 -513 62 0
-52 -515 -227 0
-52 -512 64 0
-52 -514 -394 0
-53 -513 63 0
-53 -515 -228 0
-53 -512 65 0
-53 -514 -395 0
-54 -513 64 0
-54 -515 -229 0
-54 -512 66 0
-55 -513 65 0
-55 -515 -230 0
-56 -516 68 0
-56 -518 -398 0
-57 -516 69 0
-57 -518 -399 0
-58 -517 68 0
-58 -516 70 0
-58 -518 -400 0
-59 -517 69 0
-59 -519 -234 0
-59 -516 71 0
-59 -518 -401 0
-60 -517 70 0
-60 -519 -235 0
-60 -516 72 0
-60 -518 -402 0
-61 -517 71 0
-61 -519 -236 0
-61 -516 73 0
-61 -518 -403 0
-62 -517 72 0
-62 -519 -237 0
-62 -516 74 0
-62 -518 -404 0
-63 -517 73 0
-63 -519 -238 0
-63 -516 75 0
-63 -518 -405 0
-64 -517 74 0
-64 -519 -239 0
-64 -516 76 0
-64 -518 -406 0
-65 -517 75 0
-65 -519 -240 0
-65 -516 77 0
-66 -517 76 0
-66 -519 -241 0
-67 -520 79 0
-67 -522 -409 0
-68 -520 80 0
-68 -522 -410 0
-69 -521 79 0
-69 -520 81 0
-69 -522 -411 0
-70 -521 80 0
-70 -523 -245 0
-70 -520 82 0
-70 -522 -412 0
-71 -521 81 0
-71 -523 -246 0
-71 -520 83 0
-71 -522 -413 0
-72 -521 82 0
-72 -523 -247 0
-72 -520 84 0
-72 -522 -414 0
-73 -521 83 0
-73 -523 -248 0
-73 -520 85 0
-73 -522 -415 0
-74 -521 84 0
-74 -523 -249 0
-74 -520 86 0
-74 -522 -416 0
-75 -521 85 0
-75 -523 -250 0
-75 -520 87 0
-75 -522 -417 0
-76 -521 86 0
-76 -523 -251 0
-76 -520 88 0
-77 -521 87 0
-77 -523 -252 0
-78 -524 90 0
-78 -526 -420 0
-79 -524 91 0
-79 -526 -421 0
-80 -525 90 0
-80 -524 92 0
-80 -526 -422 0
-81 -525 91 0
-81 -527 -256 0
-81 -524 93 0
-81 -526 -423 0
-82 -525 92 0
-82 -527 -257 0
-82 -524 94 0
-82 -526 -424 0
-83 -525 93 0
-83 -527 -258 0
-83 -524 95 0
-83 -526 -425 0
-84 -525 94 0
-84 -527 -259 0
-84 -524 96 0
-84 -526 -426 0
-85 -525 95 0
-85 -527 -260 0
-85 -524 97 0
-85 -526 -427 0
-86 -525 96 0
-86 -527 -261 0
-86 -524 98 0
-86 -526 -428 0
-87 -525 97 0
-87 -527 -262 0
-87 -524 99 0
-88 -525 98 0
-88 -527 -263 0
-89 -528 101 0
-89 -530 -431 0
-90 -528 102 0
-90 -530 -432 0
-91 -529 101 0
-91 -528 103 0
-91 -530 -433 0
-92 -529 102 0
-92 -531 -267 0
-92 -528 104 0
-92 -530 -434 0
-93 -529 103 0
-93 -531 -268 0
-93 -528 105 0
-93 -530 -435 0
-94 -529 104 0
-94 -531 -269 0
-94 -528 106 0
-94 -530 -436 0
-95 -529 105 0
-95 -531 -270 0
-95 -528 107 0
-95 -530 -437 0
-96 -529 106 0
-96 -531 -271 0
-96 -528 108 0
-96 -530 -438 0
-97 -529 107 0
-97 -531 -272 0
-97 -528 109 0
-97 -530 -439 0
-98 -529 108 0
-98 -531 -273 0
-98 -528 110 0
-99 -529 109 0
-99 -531 -274 0
-100 -532 112 0
-100 -534 -442 0
-101 -532 113 0
-101 -534 -443 0
-102 -533 112 0
-102 -532 114 0
-102 -534 -444 0
-103 -533 113 0
-103 -535 -278 0
-103 -532 115 0
-103 -534 -445 0
-104 -533 114 0
-104 -535 -279 0
-104 -532 116 0
-104 -534 -446 0
-105 -533 115 0
-105 -535 -280 0
-105 -532 117 0
-105 -534 -447 0
-106 -533 116 0
-106 -535 -281 0
-106 -532 118 0
-106 -534 -448 0
-107 -533 117 0
-107 -535 -282 0
-107 -532 119 0
-107 -534 -449 0
-108 -533 118 0
-108 -535 -283 0
-108 -532 120 0
-108 -534 -450 0
-109 -533 119 0
-109 -535 -284 0
-109 -532 121 0
-110 -533 120 0
-110 -535 -285 0
-111 -536 123 0
-111 -538 -453 0
-112 -536 124 0
-112 -538 -454 0
-113 -537 123 0
-113 -536 125 0
-113 -538 -455 0
-114 -537 124 0
-114 -539 -289 0
-114 -536 126 0
-114 -538 -456 0
-115 -537 125 0
-115 -539 -290 0
-115 -536 127 0
-115 -538 -457 0
-116 -537 126 0
-116 -539 -291 0
-116 -536 128 0
-116 -538 -458 0
-117 -537 127 0
-117 -539 -292 0
-117 -536 129 0
-117 -538 -459 0
-118 -537 128 0
-118 -539 -293 0
-118 -536 130 0
-118 -538 -460 0
-119 -537 129 0
-119 -539 -294 0
-119 -536 131 0
-119 -538 -461 0
-120 -537 130 0
-120 -539 -295 0
-120 -536 132 0
-121 -537 131 0
-121 -539 -296 0
-122 -540 134 0
-122 -542 -464 0
-123 -540 135 0
-123 -542 -465 0
-124 -541 134 0
-124 -540 136 0
-124 -542 -466 0
-125 -541 135 0
-125 -543 -300 0
-125 -540 137 0
-125 -542 -467 0
-126 -541 136 0
-126 -543 -301 0
-126 -540 138 0
-126 -542 -468 0
-127 -541 137 0
-127 -543 -302 0
-127 -540 139 0
-127 -542 -469 0
-128 -541 138 0
-128 -543 -303 0
-128 -540 140 0
-128 -542 -470 0
-129 -541 139 0
-129 -543 -304 0
-129 -540 141 0
-129 -542 -471 0
-130 -541 140 0
-130 -543 -305 0
-130 -540 142 0
-130 -542 -472 0
-131 -541 141 0
-131 -543 -306 0
-131 -540 143 0
-132 -541 142 0
-132 -543 -307 0
-133 -544 145 0
-133 -546 -475 0
-134 -544 146 0
-134 -546 -476 0
-135 -545 145 0
-135 -544 147 0
-135 -546 -477 0
-136 -545 146 0
-136 -547 -311 0
-136 -544 148 0
-136 -546 -478 0
-137 -545 147 0
-137 -547 -312 0
-137 -544 149 0
-137 -546 -479 0
-138 -545 148 0
-138 -547 -313 0
-138 -544 150 0
-138 -546 -480 0
-139 -545 149 0
-139 -547 -314 0
-139 -544 151 0
-139 -546 -481 0
-140 -545 150 0
-140 -547 -315 0
-140 -544 152 0
-140 -546 -482 0
-141 -545 151 0
-141 -547 -316 0
-141 -544 153 0
-141 -546 -483 0
-142 -545 152 0
-142 -547 -317 0
-142 -544 154 0
-143 -545 153 0
-143 -547 -318 0
-144 -548 156 0
-144 -550 -486 0
-145 -548 157 0
-145 -550 -487 0
-146 -549 156 0
-146 -548 158 0
-146 -550 -488 0
-147 -549 157 0
-147 -551 -322 0
-147 -548 159 0
-147 -550 -489 0
-148 -549 158 0
-148 -551 -323 0
-148 -548 160 0
-148 -550 -490 0
-149 -549 159 0
-149 -551 -324 0
-149 -548 161 0
-149 -550 -491 0
-150 -549 160 0
-150 -551 -325 0
-150 -548 162 0
-150 -550 -492 0
-151 -549 161 0
-151 -551 -326 0
-151 -548 163 0
-151 -550 -493 0
-152 -549 162 0
-152 -551 -327 0
-152 -548 164 0
-152 -550 -494 0
-153 -549 163 0
-153 -551 -328 0
-153 -548 165 0
-154 -549 164 0
-154 -551 -329 0
-155 -552 167 0
-155 -554 -497 0
-156 -552 168 0
-156 -554 -498 0
-157 -553 167 0
-157 -552 169 0
-157 -554 -499 0
-158 -553 168 0
-158 -555 -333 0
-158 -552 170 0
-158 -554 -500 0
-159 -553 169 0
-159 -555 -334 0
-159 -552 171 0
-159 -554 -501 0
-160 -553 170 0
-160 -555 -335 0
-160 -552 172 0
-160 -554 -502 0
-161 -553 171 0
-161 -555 -336 0
-161 -552 173 0
-161 -554 -503 0
-162 -553 172 0
-162 -555 -337 0
-162 -552 174 0
-162 -554 -504 0
-163 -553 173 0
-163 -555 -338 0
-163 -552 175 0
-163 -554 -505 0
-164 -553 174 0
-164 -555 -339 0
-164 -552 176 0
-165 -553 175 0
-165 -555 -340 0
